experiments/cvc4_benchmarks/expl/sg_clam/goal-sg21.smt2.log
11:21:36 [WARN] Collecting statistics
11:21:36 [WARN]  ex is: zero
11:21:36 [WARN]  ex is: (succ zero)
11:21:36 [WARN]  ex is: (succ (succ zero))
11:21:36 [WARN]  ex is: nil
11:21:36 [WARN]  ex is: (cons autovar_Nat_0 nil)
11:21:36 [WARN]  ex is: (cons autovar_Nat_1 (cons autovar_Nat_0 nil))
11:21:36 [WARN] Proof mode: false
11:21:36 [WARN]  ex is: zero
11:21:36 [WARN]  ex is: (succ zero)
11:21:36 [WARN]  ex is: (succ (succ zero))
11:21:36 [WARN]  ex is: nil
11:21:36 [WARN]  ex is: (cons autovar_Nat_0 nil)
11:21:36 [WARN]  ex is: (cons autovar_Nat_1 (cons autovar_Nat_0 nil))
11:21:36 [WARN] Proof mode: false
11:21:36 [WARN] proved: (rotate ?ts_ph_Nat_0 nil) => nil
11:21:36 [WARN] proved: (leq zero ?ts_ph_Nat_0) => true
11:21:36 [WARN] proved: (append ?ts_ph_Lst_0 nil) => ?ts_ph_Lst_0
11:22:30 [WARN] generalized case_split proof as: (append (append ?ts_ph_Lst_0 ?ts_ph_Lst_1) ?ts_ph_Lst_2) -- (append ?ts_ph_Lst_0 (append ?ts_ph_Lst_1 ?ts_ph_Lst_2))
11:22:30 [WARN] proved: (append (append ?ts_ph_Lst_0 ?ts_ph_Lst_1) ?ts_ph_Lst_2) => (append ?ts_ph_Lst_0 (append ?ts_ph_Lst_1 ?ts_ph_Lst_2))
11:22:30 [WARN] proved: (append ?ts_ph_Lst_0 (append ?ts_ph_Lst_1 ?ts_ph_Lst_2)) => (append (append ?ts_ph_Lst_0 ?ts_ph_Lst_1) ?ts_ph_Lst_2)
11:22:30 [WARN] proved: (leq (succ zero) (succ ?ts_ph_Nat_0)) => true
11:22:30 [WARN] proved: (rotate (len ?ts_ph_Lst_0) (append ?ts_ph_Lst_0 ?ts_ph_Lst_1)) => (append ?ts_ph_Lst_1 ?ts_ph_Lst_0)
11:22:30 [WARN] proved: (append ?ts_ph_Lst_1 ?ts_ph_Lst_0) => (rotate (len ?ts_ph_Lst_0) (append ?ts_ph_Lst_0 ?ts_ph_Lst_1))
11:22:30 [WARN] proved: (rotate ?ts_ph_Nat_0 (cons ?ts_ph_Nat_1 nil)) => (cons ?ts_ph_Nat_1 nil)
11:22:30 [WARN] proved: (rotate (succ zero) (rotate ?ts_ph_Nat_0 ?ts_ph_Lst_1)) => (rotate (succ ?ts_ph_Nat_0) ?ts_ph_Lst_1)
11:22:30 [WARN] proved: (rotate (succ ?ts_ph_Nat_0) ?ts_ph_Lst_1) => (rotate (succ zero) (rotate ?ts_ph_Nat_0 ?ts_ph_Lst_1))
11:22:31 [WARN] proved: (rotate ?ts_ph_Nat_1 (rotate ?ts_ph_Nat_0 ?ts_ph_Lst_1)) => (rotate ?ts_ph_Nat_0 (rotate ?ts_ph_Nat_1 ?ts_ph_Lst_1))
11:22:31 [WARN] proved: (rotate ?ts_ph_Nat_0 (rotate ?ts_ph_Nat_1 ?ts_ph_Lst_1)) => (rotate ?ts_ph_Nat_1 (rotate ?ts_ph_Nat_0 ?ts_ph_Lst_1))
